WARNING: for repeatability, setting FPU to use double precision
============================[ Problem Statistics ]=============================
|                                                                             |
|  Number of variables:            50                                         |
|  Number of clauses:             218                                         |
|  Parse time:                   0.00 s                                       |
|                                                                             |
============================[ Search Statistics ]==============================
| Conflicts |          ORIGINAL         |          LEARNT          | Progress |
|           |    Vars  Clauses Literals |    Limit  Clauses Lit/Cl |          |
===============================================================================
===============================================================================
restarts              : 1
conflicts             : 22             (26862 /sec)
decisions             : 35             (0.00 % random) (42735 /sec)
propagations          : 314            (383394 /sec)
conflict literals     : 123            (6.11 % deleted)
Memory used           : 20.00 MB
CPU time              : 0.000819 s

SATISFIABLE
